
c turning on binary mode checking

c parsing input formula with 6752 variables and 27610 clauses

c finished parsing, read 3329 bytes from proof file

c detected empty clause; start verification via backward checking

c 481 of 27610 clauses in core                            

c 53 of 778 lemmas in core using 538 resolution steps

c 0 RAT lemmas in core; 0 redundant literals in core lemmas

s VERIFIED

c verification time: 0.056 seconds
